NAME : pr152.143084.tour
COMMENT : Length = 143084
COMMENT : Found by LKH [Keld Helsgaun] Mon Nov 19 09:16:35 2018
TYPE : TOUR
DIMENSION : 166
TOUR_SECTION
1
16
153
36
154
34
155
2
156
37
157
33
158
15
159
32
160
3
161
31
162
46
52
53
72
71
70
69
54
90
99
98
97
79
91
96
115
116
78
92
95
94
93
77
74
76
50
49
48
75
73
51
47
165
45
80
114
113
100
89
101
102
103
112
104
87
83
105
106
107
86
110
109
108
85
84
41
60
61
62
63
64
59
58
42
43
57
65
66
67
68
56
55
44
164
14
4
13
5
12
6
11
7
10
8
9
17
18
40
19
21
20
22
23
39
24
25
26
27
28
38
29
30
163
124
125
126
152
150
151
127
128
123
122
129
130
149
148
147
131
132
121
120
133
134
146
145
144
135
136
119
118
137
138
143
142
141
139
140
117
111
82
88
81
166
35
-1
EOF
